15
2 0 37
2 1 31
3 0 12
3 2 2
4 2 41
5 0 30
5 1 24
6 0 9
6 1 18
6 2 42
6 3 22
6 5 8
7 0 8
7 2 33
7 3 10
7 4 9
8 0 19
8 1 48
8 2 19
8 4 43
8 5 21
8 6 6
8 7 15
9 3 53
9 4 46
9 5 38
9 7 14
9 8 44
10 1 43
10 3 15
10 4 22
10 9 44
11 3 45
11 5 12
11 6 38
11 9 6
12 1 27
12 2 46
12 4 2
12 10 4
13 0 15
13 1 20
13 2 4
13 3 20
13 4 46
13 5 20
13 7 25
13 10 8
13 11 28
13 12 17
14 2 18
14 6 46
14 11 27
